(declare-fun cmp.i_36_16 () (_ BitVec 1))
(declare-fun i.i_36_14 () (_ BitVec 64))
(declare-fun dst_reg_36_6 () (_ BitVec 64))
(declare-fun dst_reg_36_13 () (_ BitVec 8))
(declare-fun dst_reg_36_12 () (_ BitVec 32))
(declare-fun dst_reg_36_11 () (_ BitVec 32))
(declare-fun dst_reg_36_10 () (_ BitVec 32))
(declare-fun dst_reg_36_9 () (_ BitVec 64))
(declare-fun dst_reg_36_8 () (_ BitVec 64))
(declare-fun dst_reg_36_7 () (_ BitVec 64))
(declare-fun dst_reg_36_5 () (_ BitVec 64))
(declare-fun dst_reg_36_4 () (_ BitVec 64))
(declare-fun dst_reg_36_3 () (_ BitVec 32))
(declare-fun dst_reg_36_2 () (_ BitVec 32))
(declare-fun dst_reg_36_1 () (_ BitVec 32))
(declare-fun dst_reg_36_0 () (_ BitVec 32))
(declare-fun i38.i_36_30 () (_ BitVec 64))
(declare-fun cmp16.i_36_29 () (_ BitVec 1))
(declare-fun i37.i_36_27 () (_ BitVec 64))
(declare-fun cmp1.i_36_19 () (_ BitVec 1))
(declare-fun dst_reg_36_50 () (_ BitVec 8))
(declare-fun dst_reg_36_49 () (_ BitVec 32))
(declare-fun dst_reg_36_48 () (_ BitVec 32))
(declare-fun dst_reg_36_47 () (_ BitVec 32))
(declare-fun dst_reg_36_46 () (_ BitVec 64))
(declare-fun dst_reg_36_45 () (_ BitVec 64))
(declare-fun cond40.i_36_36 () (_ BitVec 64))
(declare-fun dst_reg_36_44 () (_ BitVec 64))
(declare-fun dst_reg_36_43 () (_ BitVec 64))
(declare-fun dst_reg_36_42 () (_ BitVec 64))
(declare-fun dst_reg_36_41 () (_ BitVec 64))
(declare-fun dst_reg_36_40 () (_ BitVec 32))
(declare-fun dst_reg_36_39 () (_ BitVec 32))
(declare-fun dst_reg_36_38 () (_ BitVec 32))
(declare-fun dst_reg_36_37 () (_ BitVec 32))
(declare-fun cmp31.i_36_34 () (_ BitVec 1))
(declare-fun cond27.i_36_32 () (_ BitVec 64))
(declare-fun cond12.i_36_26 () (_ BitVec 64))
(declare-fun cond.i_36_22 () (_ BitVec 64))
(declare-fun cmp.i.i.i_36_55 () (_ BitVec 1))
(declare-fun xor.i.i_36_53 () (_ BitVec 64))
(declare-fun i.i2_36_51 () (_ BitVec 64))
(declare-fun i5.i_36_52 () (_ BitVec 64))
(declare-fun i33.i_36_17 () (_ BitVec 64))
(declare-fun i36.i_36_24 () (_ BitVec 64))
(declare-fun i35.i_36_23 () (_ BitVec 64))
(declare-fun cmp8.i_36_25 () (_ BitVec 1))
(declare-fun i34.i_36_20 () (_ BitVec 64))
(declare-fun cmp3.i_36_21 () (_ BitVec 1))
(declare-fun cmp36.i_36_35 () (_ BitVec 1))
(declare-fun conv.i.i.i_36_99 () (_ BitVec 32))
(declare-fun phi.bo_36_101 () (_ BitVec 32))
(declare-fun i.i.i.i.i.neg_36_98 () (_ BitVec 32))
(declare-fun num.4.i.i.i.i_36_95 () (_ BitVec 32))
(declare-fun word.addr.4.lobit.i.i.i.i.neg_36_97 () (_ BitVec 64))
(declare-fun word.addr.4.i.i.i.i_36_94 () (_ BitVec 64))
(declare-fun num.3.i.i.i.i_36_87 () (_ BitVec 32))
(declare-fun sub22.i.i.i.i_36_91 () (_ BitVec 32))
(declare-fun tobool20.not.i.i.i.i_36_89 () (_ BitVec 1))
(declare-fun word.addr.3.i.i.i.i_36_86 () (_ BitVec 64))
(declare-fun shl23.i.i.i.i_36_93 () (_ BitVec 64))
(declare-fun num.2.i.i.i.i_36_79 () (_ BitVec 32))
(declare-fun sub16.i.i.i.i_36_83 () (_ BitVec 32))
(declare-fun tobool14.not.i.i.i.i_36_81 () (_ BitVec 1))
(declare-fun word.addr.2.i.i.i.i_36_78 () (_ BitVec 64))
(declare-fun shl17.i.i.i.i_36_85 () (_ BitVec 64))
(declare-fun num.1.i.i.i.i_36_71 () (_ BitVec 32))
(declare-fun sub10.i.i.i.i_36_75 () (_ BitVec 32))
(declare-fun tobool8.not.i.i.i.i_36_73 () (_ BitVec 1))
(declare-fun word.addr.1.i.i.i.i_36_70 () (_ BitVec 64))
(declare-fun shl11.i.i.i.i_36_77 () (_ BitVec 64))
(declare-fun spec.select17.i.i.i.i_36_63 () (_ BitVec 32))
(declare-fun sub4.i.i.i.i_36_67 () (_ BitVec 32))
(declare-fun tobool2.not.i.i.i.i_36_65 () (_ BitVec 1))
(declare-fun spec.select.i.i.i.i_36_60 () (_ BitVec 64))
(declare-fun shl5.i.i.i.i_36_69 () (_ BitVec 64))
(declare-fun tobool.not.i.i.i.i_36_57 () (_ BitVec 1))
(declare-fun shl.i.i.i.i_36_59 () (_ BitVec 64))
(declare-fun cmp23.i_36_31 () (_ BitVec 1))
(declare-fun dst_reg_36_136 () (_ BitVec 8))
(declare-fun dst_reg_36_135 () (_ BitVec 32))
(declare-fun dst_reg_36_134 () (_ BitVec 32))
(declare-fun dst_reg_36_133 () (_ BitVec 32))
(declare-fun dst_reg_36_132 () (_ BitVec 64))
(declare-fun dst_reg_36_131 () (_ BitVec 64))
(declare-fun dst_reg_36_130 () (_ BitVec 64))
(declare-fun dst_reg_36_129 () (_ BitVec 64))
(declare-fun dst_reg_36_128 () (_ BitVec 64))
(declare-fun and.i1.i_36_118 () (_ BitVec 64))
(declare-fun dst_reg_36_127 () (_ BitVec 64))
(declare-fun and4.i.i_36_121 () (_ BitVec 64))
(declare-fun dst_reg_36_126 () (_ BitVec 32))
(declare-fun dst_reg_36_125 () (_ BitVec 32))
(declare-fun dst_reg_36_124 () (_ BitVec 32))
(declare-fun dst_reg_36_123 () (_ BitVec 32))
(declare-fun retval.0.i.i.i_36_102 () (_ BitVec 32))
(declare-fun neg.i.i_36_120 () (_ BitVec 64))
(declare-fun or.i.i_36_117 () (_ BitVec 64))
(declare-fun i11.i_36_116 () (_ BitVec 64))
(declare-fun retval.sroa.3.0.i.i_36_114 () (_ BitVec 64))
(declare-fun i9.i_36_115 () (_ BitVec 64))
(declare-fun retval.sroa.0.0.i.i_36_112 () (_ BitVec 64))
(declare-fun sub.i.i_36_109 () (_ BitVec 64))
(declare-fun cmp.i.i_36_104 () (_ BitVec 1))
(declare-fun and.i.i_36_110 () (_ BitVec 64))
(declare-fun notmask.i.i_36_107 () (_ BitVec 64))
(declare-fun sh_prom.i.i_36_105 () (_ BitVec 64))
(assert (let ((a!1 (and (= cmp16.i_36_29 #b0)
                (and (= cmp1.i_36_19 #b0) (= cmp.i_36_16 #b0))))
      (a!3 (and (= cmp16.i_36_29 #b1)
                (and (= cmp1.i_36_19 #b0) (= cmp.i_36_16 #b0))))
      (a!4 (or (and (= cmp1.i_36_19 #b1) (= cmp.i_36_16 #b0))
               (= cmp.i_36_16 #b1)))
      (a!12 (=> (= cmp.i_36_16 #b0)
                (and (= dst_reg_36_7 i33.i_36_17)
                     (ite (bvslt i33.i_36_17 #x0000000000000000)
                          (= cmp1.i_36_19 #b1)
                          (= cmp1.i_36_19 #b0)))))
      (a!14 (=> (and (= cmp1.i_36_19 #b0) (= cmp.i_36_16 #b0))
                (and (= dst_reg_36_9 i37.i_36_27)
                     (ite (bvsgt i37.i_36_27 #xffffffffffffffff)
                          (= cmp16.i_36_29 #b1)
                          (= cmp16.i_36_29 #b0))
                     (= dst_reg_36_8 i38.i_36_30)))))
(let ((a!2 (=> a!1
               (and (ite (bvslt i38.i_36_30 #x0000000000000000)
                         (= cmp31.i_36_34 #b1)
                         (= cmp31.i_36_34 #b0)))))
      (a!5 (or (and (= cmp31.i_36_34 #b1) a!1)
               (and (= cmp31.i_36_34 #b0) a!1)
               a!3
               a!4))
      (a!8 (=> a!3
               (and (ite (bvult i33.i_36_17 i37.i_36_27)
                         (= cmp23.i_36_31 #b1)
                         (= cmp23.i_36_31 #b0))
                    (ite (= cmp23.i_36_31 #b1)
                         (= cond27.i_36_32 i33.i_36_17)
                         (= cond27.i_36_32 i37.i_36_27)))))
      (a!10 (=> (and (= cmp31.i_36_34 #b1) a!1)
                (and (ite (bvugt i.i_36_14 i38.i_36_30)
                          (= cmp36.i_36_35 #b1)
                          (= cmp36.i_36_35 #b0))
                     (ite (= cmp36.i_36_35 #b1)
                          (= cond40.i_36_36 i.i_36_14)
                          (= cond40.i_36_36 i38.i_36_30)))))
      (a!11 (=> a!4
                (and (= dst_reg_36_8 i34.i_36_20)
                     (ite (bvugt i.i_36_14 i34.i_36_20)
                          (= cmp3.i_36_21 #b1)
                          (= cmp3.i_36_21 #b0))
                     (ite (= cmp3.i_36_21 #b1)
                          (= cond.i_36_22 i.i_36_14)
                          (= cond.i_36_22 i34.i_36_20))
                     (= dst_reg_36_7 i35.i_36_23)
                     (= dst_reg_36_9 i36.i_36_24)
                     (ite (bvult i35.i_36_23 i36.i_36_24)
                          (= cmp8.i_36_25 #b1)
                          (= cmp8.i_36_25 #b0))
                     (ite (= cmp8.i_36_25 #b1)
                          (= cond12.i_36_26 i35.i_36_23)
                          (= cond12.i_36_26 i36.i_36_24)))))
      (a!13 (and (= dst_reg_36_45 i.i2_36_51)
                 (= dst_reg_36_46 i5.i_36_52)
                 (= xor.i.i_36_53 (bvxor i5.i_36_52 i.i2_36_51))
                 (ite (= xor.i.i_36_53 #x0000000000000000)
                      (= cmp.i.i.i_36_55 #b1)
                      (= cmp.i.i.i_36_55 #b0))
                 (=> a!4
                     (and (= dst_reg_36_0 dst_reg_36_37)
                          (= dst_reg_36_1 dst_reg_36_38)
                          (= dst_reg_36_2 dst_reg_36_39)
                          (= dst_reg_36_3 dst_reg_36_40)
                          (= dst_reg_36_4 dst_reg_36_41)
                          (= dst_reg_36_5 dst_reg_36_42)
                          (= cond.i_36_22 dst_reg_36_43)
                          (= cond12.i_36_26 dst_reg_36_44)
                          (= cond.i_36_22 dst_reg_36_45)
                          (= cond12.i_36_26 dst_reg_36_46)
                          (= dst_reg_36_10 dst_reg_36_47)
                          (= dst_reg_36_11 dst_reg_36_48)
                          (= dst_reg_36_12 dst_reg_36_49)
                          (= dst_reg_36_13 dst_reg_36_50)))
                 (=> a!3
                     (and (= dst_reg_36_0 dst_reg_36_37)
                          (= dst_reg_36_1 dst_reg_36_38)
                          (= dst_reg_36_2 dst_reg_36_39)
                          (= dst_reg_36_3 dst_reg_36_40)
                          (= dst_reg_36_4 dst_reg_36_41)
                          (= dst_reg_36_5 dst_reg_36_42)
                          (= i38.i_36_30 dst_reg_36_43)
                          (= cond27.i_36_32 dst_reg_36_44)
                          (= dst_reg_36_8 dst_reg_36_45)
                          (= cond27.i_36_32 dst_reg_36_46)
                          (= dst_reg_36_10 dst_reg_36_47)
                          (= dst_reg_36_11 dst_reg_36_48)
                          (= dst_reg_36_12 dst_reg_36_49)
                          (= dst_reg_36_13 dst_reg_36_50)))
                 (=> (and (= cmp31.i_36_34 #b0) a!1)
                     (and (= dst_reg_36_0 dst_reg_36_37)
                          (= dst_reg_36_1 dst_reg_36_38)
                          (= dst_reg_36_2 dst_reg_36_39)
                          (= dst_reg_36_3 dst_reg_36_40)
                          (= dst_reg_36_4 dst_reg_36_41)
                          (= dst_reg_36_5 dst_reg_36_42)
                          (= dst_reg_36_6 dst_reg_36_43)
                          (= dst_reg_36_7 dst_reg_36_44)
                          (= dst_reg_36_8 dst_reg_36_45)
                          (= dst_reg_36_9 dst_reg_36_46)
                          (= dst_reg_36_10 dst_reg_36_47)
                          (= dst_reg_36_11 dst_reg_36_48)
                          (= dst_reg_36_12 dst_reg_36_49)
                          (= dst_reg_36_13 dst_reg_36_50)))
                 (=> (and (= cmp31.i_36_34 #b1) a!1)
                     (and (= dst_reg_36_0 dst_reg_36_37)
                          (= dst_reg_36_1 dst_reg_36_38)
                          (= dst_reg_36_2 dst_reg_36_39)
                          (= dst_reg_36_3 dst_reg_36_40)
                          (= dst_reg_36_4 dst_reg_36_41)
                          (= dst_reg_36_5 dst_reg_36_42)
                          (= cond40.i_36_36 dst_reg_36_43)
                          (= i37.i_36_27 dst_reg_36_44)
                          (= cond40.i_36_36 dst_reg_36_45)
                          (= dst_reg_36_9 dst_reg_36_46)
                          (= dst_reg_36_10 dst_reg_36_47)
                          (= dst_reg_36_11 dst_reg_36_48)
                          (= dst_reg_36_12 dst_reg_36_49)
                          (= dst_reg_36_13 dst_reg_36_50))))))
(let ((a!6 (and (ite (bvugt retval.0.i.i.i_36_102 #x0000003f)
                     (= cmp.i.i_36_104 #b1)
                     (= cmp.i.i_36_104 #b0))
                (= sh_prom.i.i_36_105
                   ((_ zero_extend 32) retval.0.i.i.i_36_102))
                (= notmask.i.i_36_107
                   (bvshl #xffffffffffffffff sh_prom.i.i_36_105))
                (= sub.i.i_36_109 (bvxor notmask.i.i_36_107 #xffffffffffffffff))
                (= and.i.i_36_110 (bvand notmask.i.i_36_107 i.i2_36_51))
                (ite (= cmp.i.i_36_104 #b1)
                     (= retval.sroa.0.0.i.i_36_112 #x0000000000000000)
                     (= retval.sroa.0.0.i.i_36_112 and.i.i_36_110))
                (ite (= cmp.i.i_36_104 #b1)
                     (= retval.sroa.3.0.i.i_36_114 #xffffffffffffffff)
                     (= retval.sroa.3.0.i.i_36_114 sub.i.i_36_109))
                (= dst_reg_36_4 i9.i_36_115)
                (= dst_reg_36_5 i11.i_36_116)
                (= or.i.i_36_117 (bvor retval.sroa.0.0.i.i_36_112 i9.i_36_115))
                (= and.i1.i_36_118
                   (bvand retval.sroa.3.0.i.i_36_114 i11.i_36_116))
                (= neg.i.i_36_120 (bvxor and.i1.i_36_118 #xffffffffffffffff))
                (= and4.i.i_36_121 (bvand or.i.i_36_117 neg.i.i_36_120))
                (=> (and (= cmp.i.i.i_36_55 #b0) a!5)
                    (= retval.0.i.i.i_36_102 phi.bo_36_101))
                (=> (and (= cmp.i.i.i_36_55 #b1) a!5)
                    (= retval.0.i.i.i_36_102 #x00000000))
                (= dst_reg_36_37 dst_reg_36_123)
                (= dst_reg_36_38 dst_reg_36_124)
                (= dst_reg_36_39 dst_reg_36_125)
                (= dst_reg_36_40 dst_reg_36_126)
                (= and4.i.i_36_121 dst_reg_36_127)
                (= and.i1.i_36_118 dst_reg_36_128)
                (= dst_reg_36_43 dst_reg_36_129)
                (= dst_reg_36_44 dst_reg_36_130)
                (= dst_reg_36_45 dst_reg_36_131)
                (= dst_reg_36_46 dst_reg_36_132)
                (= dst_reg_36_47 dst_reg_36_133)
                (= dst_reg_36_48 dst_reg_36_134)
                (= dst_reg_36_49 dst_reg_36_135)
                (= dst_reg_36_50 dst_reg_36_136)))
      (a!9 (=> (and (= cmp.i.i.i_36_55 #b0) a!5)
               (and (ite (bvult xor.i.i_36_53 #x0000000100000000)
                         (= tobool.not.i.i.i.i_36_57 #b1)
                         (= tobool.not.i.i.i.i_36_57 #b0))
                    (= shl.i.i.i.i_36_59
                       (bvshl xor.i.i_36_53 #x0000000000000020))
                    (ite (= tobool.not.i.i.i.i_36_57 #b1)
                         (= spec.select.i.i.i.i_36_60 shl.i.i.i.i_36_59)
                         (= spec.select.i.i.i.i_36_60 xor.i.i_36_53))
                    (ite (= tobool.not.i.i.i.i_36_57 #b1)
                         (= spec.select17.i.i.i.i_36_63 #x0000001f)
                         (= spec.select17.i.i.i.i_36_63 #x0000003f))
                    (ite (bvult spec.select.i.i.i.i_36_60 #x0001000000000000)
                         (= tobool2.not.i.i.i.i_36_65 #b1)
                         (= tobool2.not.i.i.i.i_36_65 #b0))
                    (= sub4.i.i.i.i_36_67
                       (bvadd spec.select17.i.i.i.i_36_63 #xfffffff0))
                    (= shl5.i.i.i.i_36_69
                       (bvshl spec.select.i.i.i.i_36_60 #x0000000000000010))
                    (ite (= tobool2.not.i.i.i.i_36_65 #b1)
                         (= word.addr.1.i.i.i.i_36_70 shl5.i.i.i.i_36_69)
                         (= word.addr.1.i.i.i.i_36_70 spec.select.i.i.i.i_36_60))
                    (ite (= tobool2.not.i.i.i.i_36_65 #b1)
                         (= num.1.i.i.i.i_36_71 sub4.i.i.i.i_36_67)
                         (= num.1.i.i.i.i_36_71 spec.select17.i.i.i.i_36_63))
                    (ite (bvult word.addr.1.i.i.i.i_36_70 #x0100000000000000)
                         (= tobool8.not.i.i.i.i_36_73 #b1)
                         (= tobool8.not.i.i.i.i_36_73 #b0))
                    (= sub10.i.i.i.i_36_75
                       (bvadd num.1.i.i.i.i_36_71 #xfffffff8))
                    (= shl11.i.i.i.i_36_77
                       (bvshl word.addr.1.i.i.i.i_36_70 #x0000000000000008))
                    (ite (= tobool8.not.i.i.i.i_36_73 #b1)
                         (= word.addr.2.i.i.i.i_36_78 shl11.i.i.i.i_36_77)
                         (= word.addr.2.i.i.i.i_36_78 word.addr.1.i.i.i.i_36_70))
                    (ite (= tobool8.not.i.i.i.i_36_73 #b1)
                         (= num.2.i.i.i.i_36_79 sub10.i.i.i.i_36_75)
                         (= num.2.i.i.i.i_36_79 num.1.i.i.i.i_36_71))
                    (ite (bvult word.addr.2.i.i.i.i_36_78 #x1000000000000000)
                         (= tobool14.not.i.i.i.i_36_81 #b1)
                         (= tobool14.not.i.i.i.i_36_81 #b0))
                    (= sub16.i.i.i.i_36_83
                       (bvadd num.2.i.i.i.i_36_79 #xfffffffc))
                    (= shl17.i.i.i.i_36_85
                       (bvshl word.addr.2.i.i.i.i_36_78 #x0000000000000004))
                    (ite (= tobool14.not.i.i.i.i_36_81 #b1)
                         (= word.addr.3.i.i.i.i_36_86 shl17.i.i.i.i_36_85)
                         (= word.addr.3.i.i.i.i_36_86 word.addr.2.i.i.i.i_36_78))
                    (ite (= tobool14.not.i.i.i.i_36_81 #b1)
                         (= num.3.i.i.i.i_36_87 sub16.i.i.i.i_36_83)
                         (= num.3.i.i.i.i_36_87 num.2.i.i.i.i_36_79))
                    (ite (bvult word.addr.3.i.i.i.i_36_86 #x4000000000000000)
                         (= tobool20.not.i.i.i.i_36_89 #b1)
                         (= tobool20.not.i.i.i.i_36_89 #b0))
                    (= sub22.i.i.i.i_36_91
                       (bvadd num.3.i.i.i.i_36_87 #x000000fe))
                    (= shl23.i.i.i.i_36_93
                       (bvshl word.addr.3.i.i.i.i_36_86 #x0000000000000002))
                    (ite (= tobool20.not.i.i.i.i_36_89 #b1)
                         (= word.addr.4.i.i.i.i_36_94 shl23.i.i.i.i_36_93)
                         (= word.addr.4.i.i.i.i_36_94 word.addr.3.i.i.i.i_36_86))
                    (ite (= tobool20.not.i.i.i.i_36_89 #b1)
                         (= num.4.i.i.i.i_36_95 sub22.i.i.i.i_36_91)
                         (= num.4.i.i.i.i_36_95 num.3.i.i.i.i_36_87))
                    (= word.addr.4.lobit.i.i.i.i.neg_36_97
                       (bvlshr word.addr.4.i.i.i.i_36_94 #x000000000000003f))
                    (= i.i.i.i.i.neg_36_98
                       ((_ extract 31 0) word.addr.4.lobit.i.i.i.i.neg_36_97))
                    (= conv.i.i.i_36_99
                       (bvadd num.4.i.i.i.i_36_95 i.i.i.i.i.neg_36_98))
                    (= phi.bo_36_101 (bvand conv.i.i.i_36_99 #x000000ff))))))
(let ((a!7 (=> (or (and (= cmp.i.i.i_36_55 #b0) a!5)
                   (and (= cmp.i.i.i_36_55 #b1) a!5))
               a!6)))
  (and a!2
       a!7
       a!8
       a!9
       a!10
       a!11
       a!12
       (=> a!5 a!13)
       a!14
       (= dst_reg_36_0 dst_reg_36_0)
       (= dst_reg_36_1 dst_reg_36_1)
       (= dst_reg_36_2 dst_reg_36_2)
       (= dst_reg_36_3 dst_reg_36_3)
       (= dst_reg_36_4 dst_reg_36_4)
       (= dst_reg_36_5 dst_reg_36_5)
       (= dst_reg_36_6 dst_reg_36_6)
       (= dst_reg_36_7 dst_reg_36_7)
       (= dst_reg_36_8 dst_reg_36_8)
       (= dst_reg_36_9 dst_reg_36_9)
       (= dst_reg_36_10 dst_reg_36_10)
       (= dst_reg_36_11 dst_reg_36_11)
       (= dst_reg_36_12 dst_reg_36_12)
       (= dst_reg_36_13 dst_reg_36_13)
       (= dst_reg_36_6 i.i_36_14)
       (ite (bvsgt i.i_36_14 #xffffffffffffffff)
            (= cmp.i_36_16 #b1)
            (= cmp.i_36_16 #b0))))))))

;{"dst_reg":["dst_reg_36_0",[""],"dst_reg_36_1","dst_reg_36_2","dst_reg_36_3",["dst_reg_36_4","dst_reg_36_5"],"dst_reg_36_6","dst_reg_36_7","dst_reg_36_8","dst_reg_36_9","","","dst_reg_36_10","dst_reg_36_11","dst_reg_36_12"]}
;{"dst_reg":["dst_reg_36_123",[""],"dst_reg_36_124","dst_reg_36_125","dst_reg_36_126",["dst_reg_36_127","dst_reg_36_128"],"dst_reg_36_129","dst_reg_36_130","dst_reg_36_131","dst_reg_36_132","","","dst_reg_36_133","dst_reg_36_134","dst_reg_36_135"]}
